problem_generation/data/GISP/train/er_n=61_m=1089_p=0.60_SET2_setparam=100.00_alpha=0.50_989.lp
maximize
OBJ:100x0 + 100x1 + 100x2 + 100x3 + 100x4 + 100x5 + 100x6 + 100x7 + 100x8 + 100x9 + 100x10 + 100x11 + 100x12 + 100x13 + 100x14 + 100x15 + 100x16 + 100x17 + 100x18 + 100x19 + 100x20 + 100x21 + 100x22 + 100x23 + 100x24 + 100x25 + 100x26 + 100x27 + 100x28 + 100x29 + 100x30 + 100x31 + 100x32 + 100x33 + 100x34 + 100x35 + 100x36 + 100x37 + 100x38 + 100x39 + 100x40 + 100x41 + 100x42 + 100x43 + 100x44 + 100x45 + 100x46 + 100x47 + 100x48 + 100x49 + 100x50 + 100x51 + 100x52 + 100x53 + 100x54 + 100x55 + 100x56 + 100x57 + 100x58 + 100x59 + 100x60 - y7_17 - y47_53 - y26_39 - y7_35 - y8_9 - y0_5 - y40_50 - y21_46 - y6_57 - y29_59 - y21_55 - y41_42 - y10_36 - y2_32 - y10_45 - y25_43 - y3_6 - y33_56 - y22_28 - y2_59 - y3_24 - y43_60 - y22_37 - y3_42 - y15_16 - y36_48 - y15_25 - y9_49 - y9_58 - y48_49 - y48_58 - y21_41 - y6_52 - y40_54 - y25_29 - y2_45 - y3_10 - y22_23 - y14_19 - y43_55 - y22_32 - y24_60 - y3_37 - y36_43 - y28_39 - y7_16 - y36_52 - y28_57 - y29_31 - y21_27 - y29_40 - y40_49 - y6_56 - y2_13 - y25_33 - y25_42 - y3_5 - y51_54 - y13_46 - y35_46 - y3_23 - y1_53 - y13_55 - y14_32 - y24_55 - y16_60 - y36_47 - y17_43 - y28_43 - y47_56 - y9_39 - y28_52 - y9_48 - y21_31 - y21_40 - y21_49 - y23_58 - y43_45 - y35_41 - y3_18 - y14_18 - y32_54 - y9_25 - y5_36 - y9_34 - y9_43 - y5_54 - y29_30 - y21_26 - y2_3 - y20_48 - y31_57 - y2_30 - y3_4 - y4_58 - y32_58 - y9_11 - y5_22 - y17_24 - y36_37 - y46_60 - y57_60 - y17_33 - y9_29 - y17_42 - y5_49 - y6_14 - y6_23 - y27_55 - y31_34 - y23_39 - y20_52 - y31_52 - y12_48 - y4_44 - y13_22 - y4_53 - y32_44 - y16_27 - y43_44 - y43_53 - y5_17 - y17_19 - y17_28 - y17_37 - y9_33 - y50_52 - y42_57 - y0_51 - y20_29 - y11_60 - y12_25 - y39_42 - y2_11 - y12_43 - y23_52 - y1_15 - y4_57 - y32_39 - y13_35 - y13_44 - y1_51 - y16_49 - y5_12 - y9_10 - y17_23 - y38_55 - y5_30 - y19_32 - y19_41 - y27_54 - y0_37 - y11_46 - y8_59 - y0_55 - y11_55 - y20_33 - y12_29 - y20_51 - y4_34 - y1_10 - y12_56 - y16_17 - y34_53 - y1_46 - y9_14 - y26_48 - y5_25 - y49_50 - y26_57 - y38_59 - y7_53 - y27_31 - y27_49 - y0_32 - y11_50 - y12_15 - y0_59 - y41_60 - y4_29 - y1_5 - y4_47 - y34_48 - y1_23 - y24_25 - y37_44 - y34_57 - y1_32 - y37_53 - y16_30 - y14_60 - y15_34 - y46_58 - y7_39 - y49_54 - y7_48 - y8_13 - y18_57 - y8_22 - y0_18 - y0_27 - y11_27 - y27_53 - y11_36 - y30_58 - y11_54 - y12_19 - y20_32 - y31_32 - y12_28 - y4_33 - y1_18 - y14_46 - y22_59 - y26_29 - y18_25 - y26_38 - y26_47 - y38_49 - y18_43 - y26_56 - y8_17 - y19_26 - y0_22 - y0_31 - y8_44 - y30_44 - y0_40 - y44_46 - y12_23 - y4_19 - y44_55 - y34_47 - y22_54 - y34_56 - y45_56 - y37_52 - y14_59 - y15_24 - y15_33 - y26_33 - y18_38 - y7_47 - y18_56 - y11_17 - y29_53 - y19_30 - y41_45 - y4_5 - y4_14 - y10_48 - y44_50 - y25_46 - y33_59 - y44_59 - y14_27 - y22_40 - y34_42 - y3_36 - y37_38 - y22_49 - y15_19 - y15_28 - y36_60 - y47_60 - y26_37 - y8_16 - y48_52 - y11_12 - y19_25 - y11_21 - y40_57 - y41_58 - y2_39 - y25_41 - y33_54 - y2_48 - y3_22 - y14_22 - y3_31 - y14_31 - y22_44 - y3_40 - y14_49 - y7_10 - y47_55 - y17_51 - y28_51 - y17_60 - y29_34 - y8_11 - y21_39 - y6_50 - y10_47 - y44_49 - y25_45 - y3_8 - y25_54 - y3_26 - y3_44 - y47_50 - y17_46 - y28_46 - y5_53 - y28_55 - y9_51 - y21_34 - y29_47 - y10_33 - y33_35 - y25_31 - y10_42 - y33_44 - y2_47 - y14_21 - y1_60 - y17_32 - y7_9 - y36_45 - y28_41 - y47_54 - y9_55 - y29_33 - y21_29 - y6_40 - y29_42 - y40_42 - y21_38 - y21_47 - y2_6 - y10_19 - y39_55 - y20_60 - y10_37 - y2_42 - y24_48 - y35_48 - y16_44 - y13_57 - y16_53 - y17_18 - y9_23 - y17_36 - y9_32 - y5_43 - y6_8 - y17_45 - y28_45 - y9_50 - y9_59 - y6_35 - y31_46 - y39_59 - y2_19 - y20_55 - y54_57 - y23_51 - y12_60 - y2_37 - y13_34 - y3_11 - y51_60 - y13_43 - y32_56 - y16_39 - y24_52 - y16_48 - y1_59 - y5_20 - y28_31 - y9_27 - y28_49 - y6_12 - y58_59 - y50_55 - y6_30 - y42_51 - y39_45 - y10_18 - y20_50 - y31_50 - y20_59 - y13_29 - y1_36 - y24_38 - y35_38 - y1_45 - y24_56 - y5_24 - y49_58 - y5_33 - y5_42 - y6_7 - y6_16 - y27_57 - y50_59 - y19_53 - y42_55 - y20_27 - y23_32 - y39_58 - y2_18 - y54_56 - y4_46 - y12_59 - y13_24 - y53_60 - y16_20 - y1_31 - y13_33 - y13_42 - y24_51 - y46_48 - y38_44 - y17_21 - y17_30 - y28_30 - y9_26 - y26_60 - y9_35 - y27_52 - y30_48 - y0_44 - y11_44 - y19_57 - y11_53 - y20_31 - y2_4 - y20_40 - y31_40 - y23_36 - y4_32 - y23_45 - y20_58 - y12_54 - y23_54 - y4_50 - y1_26 - y4_59 - y16_24 - y56_60 - y24_37 - y16_42 - y15_46 - y5_32 - y27_29 - y8_25 - y8_43 - y11_39 - y0_57 - y31_35 - y4_18 - y12_31 - y4_27 - y12_40 - y13_14 - y34_46 - y16_19 - y45_55 - y1_30 - y1_39 - y46_56 - y18_55 - y8_20 - y27_33 - y19_38 - y30_38 - y0_34 - y11_34 - y8_47 - y19_56 - y20_21 - y0_52 - y11_52 - y4_13 - y31_39 - y33_58 - y44_58 - y4_31 - y13_18 - y45_50 - y1_25 - y56_59 - y3_53 - y26_27 - y15_36 - y26_36 - y7_32 - y38_47 - y7_41 - y26_54 - y38_56 - y0_11 - y19_24 - y27_37 - y0_20 - y27_46 - y19_42 - y11_38 - y0_47 - y20_25 - y4_8 - y41_57 - y22_34 - y34_45 - y22_52 - y3_48 - y14_57 - y7_18 - y26_40 - y7_36 - y26_49 - y7_45 - y19_28 - y11_24 - y29_60 - y19_37 - y30_37 - y40_60 - y11_33 - y41_52 - y33_48 - y25_53 - y1_6 - y2_60 - y22_38 - y14_34 - y34_49 - y56_58 - y15_17 - y7_13 - y18_31 - y7_49 - y8_14 - y18_49 - y29_46 - y40_46 - y48_59 - y6_53 - y11_19 - y33_43 - y52_56 - y25_39 - y14_20 - y34_44 - y14_38 - y3_47 - y14_56
 Subject to
C1: x0+x3 <=1 
C2: x0+x5-y0_5 <=1 
C3: x0+x10 <=1 
C4: x0+x11-y0_11 <=1 
C5: x0+x12 <=1 
C6: x0+x15 <=1 
C7: x0+x16 <=1 
C8: x0+x17 <=1 
C9: x0+x18-y0_18 <=1 
C10: x0+x20-y0_20 <=1 
C11: x0+x22-y0_22 <=1 
C12: x0+x25 <=1 
C13: x0+x26 <=1 
C14: x0+x27-y0_27 <=1 
C15: x0+x29 <=1 
C16: x0+x31-y0_31 <=1 
C17: x0+x32-y0_32 <=1 
C18: x0+x33 <=1 
C19: x0+x34-y0_34 <=1 
C20: x0+x36 <=1 
C21: x0+x37-y0_37 <=1 
C22: x0+x38 <=1 
C23: x0+x39 <=1 
C24: x0+x40-y0_40 <=1 
C25: x0+x41 <=1 
C26: x0+x44-y0_44 <=1 
C27: x0+x45 <=1 
C28: x0+x47-y0_47 <=1 
C29: x0+x50 <=1 
C30: x0+x51-y0_51 <=1 
C31: x0+x52-y0_52 <=1 
C32: x0+x53 <=1 
C33: x0+x55-y0_55 <=1 
C34: x0+x56 <=1 
C35: x0+x57-y0_57 <=1 
C36: x0+x59-y0_59 <=1 
C37: x1+x2 <=1 
C38: x1+x5-y1_5 <=1 
C39: x1+x6-y1_6 <=1 
C40: x1+x10-y1_10 <=1 
C41: x1+x12 <=1 
C42: x1+x14 <=1 
C43: x1+x15-y1_15 <=1 
C44: x1+x16 <=1 
C45: x1+x17 <=1 
C46: x1+x18-y1_18 <=1 
C47: x1+x19 <=1 
C48: x1+x21 <=1 
C49: x1+x22 <=1 
C50: x1+x23-y1_23 <=1 
C51: x1+x25-y1_25 <=1 
C52: x1+x26-y1_26 <=1 
C53: x1+x28 <=1 
C54: x1+x30-y1_30 <=1 
C55: x1+x31-y1_31 <=1 
C56: x1+x32-y1_32 <=1 
C57: x1+x35 <=1 
C58: x1+x36-y1_36 <=1 
C59: x1+x37 <=1 
C60: x1+x39-y1_39 <=1 
C61: x1+x41 <=1 
C62: x1+x42 <=1 
C63: x1+x45-y1_45 <=1 
C64: x1+x46-y1_46 <=1 
C65: x1+x47 <=1 
C66: x1+x48 <=1 
C67: x1+x49 <=1 
C68: x1+x51-y1_51 <=1 
C69: x1+x52 <=1 
C70: x1+x53-y1_53 <=1 
C71: x1+x57 <=1 
C72: x1+x59-y1_59 <=1 
C73: x1+x60-y1_60 <=1 
C74: x2+x3-y2_3 <=1 
C75: x2+x4-y2_4 <=1 
C76: x2+x6-y2_6 <=1 
C77: x2+x8 <=1 
C78: x2+x10 <=1 
C79: x2+x11-y2_11 <=1 
C80: x2+x13-y2_13 <=1 
C81: x2+x15 <=1 
C82: x2+x17 <=1 
C83: x2+x18-y2_18 <=1 
C84: x2+x19-y2_19 <=1 
C85: x2+x20 <=1 
C86: x2+x22 <=1 
C87: x2+x26 <=1 
C88: x2+x28 <=1 
C89: x2+x30-y2_30 <=1 
C90: x2+x32-y2_32 <=1 
C91: x2+x33 <=1 
C92: x2+x36 <=1 
C93: x2+x37-y2_37 <=1 
C94: x2+x39-y2_39 <=1 
C95: x2+x42-y2_42 <=1 
C96: x2+x44 <=1 
C97: x2+x45-y2_45 <=1 
C98: x2+x46 <=1 
C99: x2+x47-y2_47 <=1 
C100: x2+x48-y2_48 <=1 
C101: x2+x56 <=1 
C102: x2+x58 <=1 
C103: x2+x59-y2_59 <=1 
C104: x2+x60-y2_60 <=1 
C105: x3+x4-y3_4 <=1 
C106: x3+x5-y3_5 <=1 
C107: x3+x6-y3_6 <=1 
C108: x3+x7 <=1 
C109: x3+x8-y3_8 <=1 
C110: x3+x10-y3_10 <=1 
C111: x3+x11-y3_11 <=1 
C112: x3+x13 <=1 
C113: x3+x14 <=1 
C114: x3+x15 <=1 
C115: x3+x16 <=1 
C116: x3+x17 <=1 
C117: x3+x18-y3_18 <=1 
C118: x3+x22-y3_22 <=1 
C119: x3+x23-y3_23 <=1 
C120: x3+x24-y3_24 <=1 
C121: x3+x25 <=1 
C122: x3+x26-y3_26 <=1 
C123: x3+x30 <=1 
C124: x3+x31-y3_31 <=1 
C125: x3+x34 <=1 
C126: x3+x36-y3_36 <=1 
C127: x3+x37-y3_37 <=1 
C128: x3+x39 <=1 
C129: x3+x40-y3_40 <=1 
C130: x3+x41 <=1 
C131: x3+x42-y3_42 <=1 
C132: x3+x43 <=1 
C133: x3+x44-y3_44 <=1 
C134: x3+x46 <=1 
C135: x3+x47-y3_47 <=1 
C136: x3+x48-y3_48 <=1 
C137: x3+x51 <=1 
C138: x3+x53-y3_53 <=1 
C139: x3+x54 <=1 
C140: x3+x56 <=1 
C141: x3+x60 <=1 
C142: x4+x5-y4_5 <=1 
C143: x4+x6 <=1 
C144: x4+x8-y4_8 <=1 
C145: x4+x9 <=1 
C146: x4+x11 <=1 
C147: x4+x12 <=1 
C148: x4+x13-y4_13 <=1 
C149: x4+x14-y4_14 <=1 
C150: x4+x16 <=1 
C151: x4+x17 <=1 
C152: x4+x18-y4_18 <=1 
C153: x4+x19-y4_19 <=1 
C154: x4+x22 <=1 
C155: x4+x24 <=1 
C156: x4+x25 <=1 
C157: x4+x26 <=1 
C158: x4+x27-y4_27 <=1 
C159: x4+x28 <=1 
C160: x4+x29-y4_29 <=1 
C161: x4+x31-y4_31 <=1 
C162: x4+x32-y4_32 <=1 
C163: x4+x33-y4_33 <=1 
C164: x4+x34-y4_34 <=1 
C165: x4+x35 <=1 
C166: x4+x38 <=1 
C167: x4+x39 <=1 
C168: x4+x40 <=1 
C169: x4+x41 <=1 
C170: x4+x42 <=1 
C171: x4+x43 <=1 
C172: x4+x44-y4_44 <=1 
C173: x4+x45 <=1 
C174: x4+x46-y4_46 <=1 
C175: x4+x47-y4_47 <=1 
C176: x4+x48 <=1 
C177: x4+x50-y4_50 <=1 
C178: x4+x53-y4_53 <=1 
C179: x4+x57-y4_57 <=1 
C180: x4+x58-y4_58 <=1 
C181: x4+x59-y4_59 <=1 
C182: x5+x7 <=1 
C183: x5+x12-y5_12 <=1 
C184: x5+x14 <=1 
C185: x5+x15 <=1 
C186: x5+x17-y5_17 <=1 
C187: x5+x20-y5_20 <=1 
C188: x5+x22-y5_22 <=1 
C189: x5+x23 <=1 
C190: x5+x24-y5_24 <=1 
C191: x5+x25-y5_25 <=1 
C192: x5+x27 <=1 
C193: x5+x28 <=1 
C194: x5+x29 <=1 
C195: x5+x30-y5_30 <=1 
C196: x5+x32-y5_32 <=1 
C197: x5+x33-y5_33 <=1 
C198: x5+x35 <=1 
C199: x5+x36-y5_36 <=1 
C200: x5+x37 <=1 
C201: x5+x40 <=1 
C202: x5+x41 <=1 
C203: x5+x42-y5_42 <=1 
C204: x5+x43-y5_43 <=1 
C205: x5+x44 <=1 
C206: x5+x47 <=1 
C207: x5+x49-y5_49 <=1 
C208: x5+x50 <=1 
C209: x5+x53-y5_53 <=1 
C210: x5+x54-y5_54 <=1 
C211: x5+x60 <=1 
C212: x6+x7-y6_7 <=1 
C213: x6+x8-y6_8 <=1 
C214: x6+x10 <=1 
C215: x6+x12-y6_12 <=1 
C216: x6+x13 <=1 
C217: x6+x14-y6_14 <=1 
C218: x6+x15 <=1 
C219: x6+x16-y6_16 <=1 
C220: x6+x23-y6_23 <=1 
C221: x6+x25 <=1 
C222: x6+x26 <=1 
C223: x6+x28 <=1 
C224: x6+x30-y6_30 <=1 
C225: x6+x33 <=1 
C226: x6+x35-y6_35 <=1 
C227: x6+x40-y6_40 <=1 
C228: x6+x41 <=1 
C229: x6+x42 <=1 
C230: x6+x43 <=1 
C231: x6+x44 <=1 
C232: x6+x48 <=1 
C233: x6+x50-y6_50 <=1 
C234: x6+x52-y6_52 <=1 
C235: x6+x53-y6_53 <=1 
C236: x6+x55 <=1 
C237: x6+x56-y6_56 <=1 
C238: x6+x57-y6_57 <=1 
C239: x6+x58 <=1 
C240: x6+x60 <=1 
C241: x7+x8 <=1 
C242: x7+x9-y7_9 <=1 
C243: x7+x10-y7_10 <=1 
C244: x7+x12 <=1 
C245: x7+x13-y7_13 <=1 
C246: x7+x16-y7_16 <=1 
C247: x7+x17-y7_17 <=1 
C248: x7+x18-y7_18 <=1 
C249: x7+x23 <=1 
C250: x7+x24 <=1 
C251: x7+x27 <=1 
C252: x7+x30 <=1 
C253: x7+x32-y7_32 <=1 
C254: x7+x35-y7_35 <=1 
C255: x7+x36-y7_36 <=1 
C256: x7+x37 <=1 
C257: x7+x39-y7_39 <=1 
C258: x7+x41-y7_41 <=1 
C259: x7+x42 <=1 
C260: x7+x45-y7_45 <=1 
C261: x7+x47-y7_47 <=1 
C262: x7+x48-y7_48 <=1 
C263: x7+x49-y7_49 <=1 
C264: x7+x53-y7_53 <=1 
C265: x7+x54 <=1 
C266: x7+x55 <=1 
C267: x7+x56 <=1 
C268: x8+x9-y8_9 <=1 
C269: x8+x10 <=1 
C270: x8+x11-y8_11 <=1 
C271: x8+x13-y8_13 <=1 
C272: x8+x14-y8_14 <=1 
C273: x8+x15 <=1 
C274: x8+x16-y8_16 <=1 
C275: x8+x17-y8_17 <=1 
C276: x8+x20-y8_20 <=1 
C277: x8+x22-y8_22 <=1 
C278: x8+x23 <=1 
C279: x8+x25-y8_25 <=1 
C280: x8+x28 <=1 
C281: x8+x30 <=1 
C282: x8+x32 <=1 
C283: x8+x35 <=1 
C284: x8+x39 <=1 
C285: x8+x40 <=1 
C286: x8+x41 <=1 
C287: x8+x43-y8_43 <=1 
C288: x8+x44-y8_44 <=1 
C289: x8+x45 <=1 
C290: x8+x46 <=1 
C291: x8+x47-y8_47 <=1 
C292: x8+x51 <=1 
C293: x8+x52 <=1 
C294: x8+x54 <=1 
C295: x8+x57 <=1 
C296: x8+x59-y8_59 <=1 
C297: x8+x60 <=1 
C298: x9+x10-y9_10 <=1 
C299: x9+x11-y9_11 <=1 
C300: x9+x12 <=1 
C301: x9+x14-y9_14 <=1 
C302: x9+x18 <=1 
C303: x9+x20 <=1 
C304: x9+x23-y9_23 <=1 
C305: x9+x24 <=1 
C306: x9+x25-y9_25 <=1 
C307: x9+x26-y9_26 <=1 
C308: x9+x27-y9_27 <=1 
C309: x9+x29-y9_29 <=1 
C310: x9+x31 <=1 
C311: x9+x32-y9_32 <=1 
C312: x9+x33-y9_33 <=1 
C313: x9+x34-y9_34 <=1 
C314: x9+x35-y9_35 <=1 
C315: x9+x36 <=1 
C316: x9+x37 <=1 
C317: x9+x39-y9_39 <=1 
C318: x9+x41 <=1 
C319: x9+x42 <=1 
C320: x9+x43-y9_43 <=1 
C321: x9+x44 <=1 
C322: x9+x45 <=1 
C323: x9+x46 <=1 
C324: x9+x48-y9_48 <=1 
C325: x9+x49-y9_49 <=1 
C326: x9+x50-y9_50 <=1 
C327: x9+x51-y9_51 <=1 
C328: x9+x52 <=1 
C329: x9+x53 <=1 
C330: x9+x54 <=1 
C331: x9+x55-y9_55 <=1 
C332: x9+x57 <=1 
C333: x9+x58-y9_58 <=1 
C334: x9+x59-y9_59 <=1 
C335: x9+x60 <=1 
C336: x10+x12 <=1 
C337: x10+x18-y10_18 <=1 
C338: x10+x19-y10_19 <=1 
C339: x10+x22 <=1 
C340: x10+x24 <=1 
C341: x10+x25 <=1 
C342: x10+x27 <=1 
C343: x10+x30 <=1 
C344: x10+x33-y10_33 <=1 
C345: x10+x36-y10_36 <=1 
C346: x10+x37-y10_37 <=1 
C347: x10+x38 <=1 
C348: x10+x42-y10_42 <=1 
C349: x10+x43 <=1 
C350: x10+x44 <=1 
C351: x10+x45-y10_45 <=1 
C352: x10+x46 <=1 
C353: x10+x47-y10_47 <=1 
C354: x10+x48-y10_48 <=1 
C355: x10+x49 <=1 
C356: x10+x52 <=1 
C357: x10+x53 <=1 
C358: x10+x54 <=1 
C359: x10+x55 <=1 
C360: x10+x59 <=1 
C361: x11+x12-y11_12 <=1 
C362: x11+x13 <=1 
C363: x11+x16 <=1 
C364: x11+x17-y11_17 <=1 
C365: x11+x18 <=1 
C366: x11+x19-y11_19 <=1 
C367: x11+x20 <=1 
C368: x11+x21-y11_21 <=1 
C369: x11+x22 <=1 
C370: x11+x23 <=1 
C371: x11+x24-y11_24 <=1 
C372: x11+x25 <=1 
C373: x11+x27-y11_27 <=1 
C374: x11+x28 <=1 
C375: x11+x29 <=1 
C376: x11+x31 <=1 
C377: x11+x32 <=1 
C378: x11+x33-y11_33 <=1 
C379: x11+x34-y11_34 <=1 
C380: x11+x36-y11_36 <=1 
C381: x11+x38-y11_38 <=1 
C382: x11+x39-y11_39 <=1 
C383: x11+x40 <=1 
C384: x11+x41 <=1 
C385: x11+x43 <=1 
C386: x11+x44-y11_44 <=1 
C387: x11+x45 <=1 
C388: x11+x46-y11_46 <=1 
C389: x11+x47 <=1 
C390: x11+x48 <=1 
C391: x11+x50-y11_50 <=1 
C392: x11+x51 <=1 
C393: x11+x52-y11_52 <=1 
C394: x11+x53-y11_53 <=1 
C395: x11+x54-y11_54 <=1 
C396: x11+x55-y11_55 <=1 
C397: x11+x57 <=1 
C398: x11+x58 <=1 
C399: x11+x60-y11_60 <=1 
C400: x12+x15-y12_15 <=1 
C401: x12+x19-y12_19 <=1 
C402: x12+x22 <=1 
C403: x12+x23-y12_23 <=1 
C404: x12+x25-y12_25 <=1 
C405: x12+x26 <=1 
C406: x12+x27 <=1 
C407: x12+x28-y12_28 <=1 
C408: x12+x29-y12_29 <=1 
C409: x12+x31-y12_31 <=1 
C410: x12+x34 <=1 
C411: x12+x35 <=1 
C412: x12+x36 <=1 
C413: x12+x37 <=1 
C414: x12+x40-y12_40 <=1 
C415: x12+x43-y12_43 <=1 
C416: x12+x45 <=1 
C417: x12+x47 <=1 
C418: x12+x48-y12_48 <=1 
C419: x12+x49 <=1 
C420: x12+x52 <=1 
C421: x12+x54-y12_54 <=1 
C422: x12+x55 <=1 
C423: x12+x56-y12_56 <=1 
C424: x12+x57 <=1 
C425: x12+x58 <=1 
C426: x12+x59-y12_59 <=1 
C427: x12+x60-y12_60 <=1 
C428: x13+x14-y13_14 <=1 
C429: x13+x16 <=1 
C430: x13+x18-y13_18 <=1 
C431: x13+x19 <=1 
C432: x13+x22-y13_22 <=1 
C433: x13+x24-y13_24 <=1 
C434: x13+x25 <=1 
C435: x13+x26 <=1 
C436: x13+x29-y13_29 <=1 
C437: x13+x30 <=1 
C438: x13+x33-y13_33 <=1 
C439: x13+x34-y13_34 <=1 
C440: x13+x35-y13_35 <=1 
C441: x13+x37 <=1 
C442: x13+x38 <=1 
C443: x13+x40 <=1 
C444: x13+x42-y13_42 <=1 
C445: x13+x43-y13_43 <=1 
C446: x13+x44-y13_44 <=1 
C447: x13+x46-y13_46 <=1 
C448: x13+x47 <=1 
C449: x13+x48 <=1 
C450: x13+x52 <=1 
C451: x13+x53 <=1 
C452: x13+x55-y13_55 <=1 
C453: x13+x57-y13_57 <=1 
C454: x13+x59 <=1 
C455: x14+x16 <=1 
C456: x14+x18-y14_18 <=1 
C457: x14+x19-y14_19 <=1 
C458: x14+x20-y14_20 <=1 
C459: x14+x21-y14_21 <=1 
C460: x14+x22-y14_22 <=1 
C461: x14+x25 <=1 
C462: x14+x26 <=1 
C463: x14+x27-y14_27 <=1 
C464: x14+x29 <=1 
C465: x14+x31-y14_31 <=1 
C466: x14+x32-y14_32 <=1 
C467: x14+x33 <=1 
C468: x14+x34-y14_34 <=1 
C469: x14+x35 <=1 
C470: x14+x36 <=1 
C471: x14+x38-y14_38 <=1 
C472: x14+x42 <=1 
C473: x14+x43 <=1 
C474: x14+x45 <=1 
C475: x14+x46-y14_46 <=1 
C476: x14+x47 <=1 
C477: x14+x48 <=1 
C478: x14+x49-y14_49 <=1 
C479: x14+x50 <=1 
C480: x14+x51 <=1 
C481: x14+x52 <=1 
C482: x14+x53 <=1 
C483: x14+x56-y14_56 <=1 
C484: x14+x57-y14_57 <=1 
C485: x14+x58 <=1 
C486: x14+x59-y14_59 <=1 
C487: x14+x60-y14_60 <=1 
C488: x15+x16-y15_16 <=1 
C489: x15+x17-y15_17 <=1 
C490: x15+x19-y15_19 <=1 
C491: x15+x20 <=1 
C492: x15+x21 <=1 
C493: x15+x22 <=1 
C494: x15+x24-y15_24 <=1 
C495: x15+x25-y15_25 <=1 
C496: x15+x26 <=1 
C497: x15+x28-y15_28 <=1 
C498: x15+x29 <=1 
C499: x15+x30 <=1 
C500: x15+x31 <=1 
C501: x15+x32 <=1 
C502: x15+x33-y15_33 <=1 
C503: x15+x34-y15_34 <=1 
C504: x15+x35 <=1 
C505: x15+x36-y15_36 <=1 
C506: x15+x37 <=1 
C507: x15+x42 <=1 
C508: x15+x46-y15_46 <=1 
C509: x15+x47 <=1 
C510: x15+x52 <=1 
C511: x15+x53 <=1 
C512: x15+x55 <=1 
C513: x15+x56 <=1 
C514: x15+x57 <=1 
C515: x15+x58 <=1 
C516: x15+x60 <=1 
C517: x16+x17-y16_17 <=1 
C518: x16+x19-y16_19 <=1 
C519: x16+x20-y16_20 <=1 
C520: x16+x23 <=1 
C521: x16+x24-y16_24 <=1 
C522: x16+x25 <=1 
C523: x16+x27-y16_27 <=1 
C524: x16+x29 <=1 
C525: x16+x30-y16_30 <=1 
C526: x16+x33 <=1 
C527: x16+x39-y16_39 <=1 
C528: x16+x42-y16_42 <=1 
C529: x16+x44-y16_44 <=1 
C530: x16+x48-y16_48 <=1 
C531: x16+x49-y16_49 <=1 
C532: x16+x50 <=1 
C533: x16+x53-y16_53 <=1 
C534: x16+x59 <=1 
C535: x16+x60-y16_60 <=1 
C536: x17+x18-y17_18 <=1 
C537: x17+x19-y17_19 <=1 
C538: x17+x21-y17_21 <=1 
C539: x17+x23-y17_23 <=1 
C540: x17+x24-y17_24 <=1 
C541: x17+x27 <=1 
C542: x17+x28-y17_28 <=1 
C543: x17+x29 <=1 
C544: x17+x30-y17_30 <=1 
C545: x17+x31 <=1 
C546: x17+x32-y17_32 <=1 
C547: x17+x33-y17_33 <=1 
C548: x17+x36-y17_36 <=1 
C549: x17+x37-y17_37 <=1 
C550: x17+x38 <=1 
C551: x17+x42-y17_42 <=1 
C552: x17+x43-y17_43 <=1 
C553: x17+x45-y17_45 <=1 
C554: x17+x46-y17_46 <=1 
C555: x17+x50 <=1 
C556: x17+x51-y17_51 <=1 
C557: x17+x52 <=1 
C558: x17+x53 <=1 
C559: x17+x55 <=1 
C560: x17+x57 <=1 
C561: x17+x58 <=1 
C562: x17+x59 <=1 
C563: x17+x60-y17_60 <=1 
C564: x18+x19 <=1 
C565: x18+x24 <=1 
C566: x18+x25-y18_25 <=1 
C567: x18+x27 <=1 
C568: x18+x30 <=1 
C569: x18+x31-y18_31 <=1 
C570: x18+x37 <=1 
C571: x18+x38-y18_38 <=1 
C572: x18+x39 <=1 
C573: x18+x42 <=1 
C574: x18+x43-y18_43 <=1 
C575: x18+x44 <=1 
C576: x18+x47 <=1 
C577: x18+x49-y18_49 <=1 
C578: x18+x50 <=1 
C579: x18+x54 <=1 
C580: x18+x55-y18_55 <=1 
C581: x18+x56-y18_56 <=1 
C582: x18+x57-y18_57 <=1 
C583: x18+x59 <=1 
C584: x19+x21 <=1 
C585: x19+x23 <=1 
C586: x19+x24-y19_24 <=1 
C587: x19+x25-y19_25 <=1 
C588: x19+x26-y19_26 <=1 
C589: x19+x27 <=1 
C590: x19+x28-y19_28 <=1 
C591: x19+x29 <=1 
C592: x19+x30-y19_30 <=1 
C593: x19+x32-y19_32 <=1 
C594: x19+x34 <=1 
C595: x19+x35 <=1 
C596: x19+x37-y19_37 <=1 
C597: x19+x38-y19_38 <=1 
C598: x19+x41-y19_41 <=1 
C599: x19+x42-y19_42 <=1 
C600: x19+x44 <=1 
C601: x19+x49 <=1 
C602: x19+x52 <=1 
C603: x19+x53-y19_53 <=1 
C604: x19+x54 <=1 
C605: x19+x56-y19_56 <=1 
C606: x19+x57-y19_57 <=1 
C607: x19+x58 <=1 
C608: x19+x59 <=1 
C609: x20+x21-y20_21 <=1 
C610: x20+x22 <=1 
C611: x20+x25-y20_25 <=1 
C612: x20+x27-y20_27 <=1 
C613: x20+x29-y20_29 <=1 
C614: x20+x30 <=1 
C615: x20+x31-y20_31 <=1 
C616: x20+x32-y20_32 <=1 
C617: x20+x33-y20_33 <=1 
C618: x20+x37 <=1 
C619: x20+x39 <=1 
C620: x20+x40-y20_40 <=1 
C621: x20+x43 <=1 
C622: x20+x48-y20_48 <=1 
C623: x20+x49 <=1 
C624: x20+x50-y20_50 <=1 
C625: x20+x51-y20_51 <=1 
C626: x20+x52-y20_52 <=1 
C627: x20+x53 <=1 
C628: x20+x54 <=1 
C629: x20+x55-y20_55 <=1 
C630: x20+x56 <=1 
C631: x20+x57 <=1 
C632: x20+x58-y20_58 <=1 
C633: x20+x59-y20_59 <=1 
C634: x20+x60-y20_60 <=1 
C635: x21+x22 <=1 
C636: x21+x23 <=1 
C637: x21+x24 <=1 
C638: x21+x26-y21_26 <=1 
C639: x21+x27-y21_27 <=1 
C640: x21+x29-y21_29 <=1 
C641: x21+x31-y21_31 <=1 
C642: x21+x32 <=1 
C643: x21+x34-y21_34 <=1 
C644: x21+x38-y21_38 <=1 
C645: x21+x39-y21_39 <=1 
C646: x21+x40-y21_40 <=1 
C647: x21+x41-y21_41 <=1 
C648: x21+x42 <=1 
C649: x21+x45 <=1 
C650: x21+x46-y21_46 <=1 
C651: x21+x47-y21_47 <=1 
C652: x21+x48 <=1 
C653: x21+x49-y21_49 <=1 
C654: x21+x50 <=1 
C655: x21+x54 <=1 
C656: x21+x55-y21_55 <=1 
C657: x21+x56 <=1 
C658: x21+x58 <=1 
C659: x21+x59 <=1 
C660: x22+x23-y22_23 <=1 
C661: x22+x24 <=1 
C662: x22+x25 <=1 
C663: x22+x26 <=1 
C664: x22+x28-y22_28 <=1 
C665: x22+x30 <=1 
C666: x22+x32-y22_32 <=1 
C667: x22+x34-y22_34 <=1 
C668: x22+x37-y22_37 <=1 
C669: x22+x38-y22_38 <=1 
C670: x22+x40-y22_40 <=1 
C671: x22+x41 <=1 
C672: x22+x44-y22_44 <=1 
C673: x22+x47 <=1 
C674: x22+x48 <=1 
C675: x22+x49-y22_49 <=1 
C676: x22+x52-y22_52 <=1 
C677: x22+x53 <=1 
C678: x22+x54-y22_54 <=1 
C679: x22+x56 <=1 
C680: x22+x57 <=1 
C681: x22+x59-y22_59 <=1 
C682: x23+x25 <=1 
C683: x23+x31 <=1 
C684: x23+x32-y23_32 <=1 
C685: x23+x35 <=1 
C686: x23+x36-y23_36 <=1 
C687: x23+x38 <=1 
C688: x23+x39-y23_39 <=1 
C689: x23+x40 <=1 
C690: x23+x42 <=1 
C691: x23+x43 <=1 
C692: x23+x44 <=1 
C693: x23+x45-y23_45 <=1 
C694: x23+x49 <=1 
C695: x23+x51-y23_51 <=1 
C696: x23+x52-y23_52 <=1 
C697: x23+x54-y23_54 <=1 
C698: x23+x56 <=1 
C699: x23+x57 <=1 
C700: x23+x58-y23_58 <=1 
C701: x24+x25-y24_25 <=1 
C702: x24+x26 <=1 
C703: x24+x27 <=1 
C704: x24+x28 <=1 
C705: x24+x29 <=1 
C706: x24+x37-y24_37 <=1 
C707: x24+x38-y24_38 <=1 
C708: x24+x42 <=1 
C709: x24+x43 <=1 
C710: x24+x45 <=1 
C711: x24+x46 <=1 
C712: x24+x48-y24_48 <=1 
C713: x24+x51-y24_51 <=1 
C714: x24+x52-y24_52 <=1 
C715: x24+x53 <=1 
C716: x24+x54 <=1 
C717: x24+x55-y24_55 <=1 
C718: x24+x56-y24_56 <=1 
C719: x24+x57 <=1 
C720: x24+x59 <=1 
C721: x24+x60-y24_60 <=1 
C722: x25+x29-y25_29 <=1 
C723: x25+x31-y25_31 <=1 
C724: x25+x32 <=1 
C725: x25+x33-y25_33 <=1 
C726: x25+x36 <=1 
C727: x25+x38 <=1 
C728: x25+x39-y25_39 <=1 
C729: x25+x40 <=1 
C730: x25+x41-y25_41 <=1 
C731: x25+x42-y25_42 <=1 
C732: x25+x43-y25_43 <=1 
C733: x25+x44 <=1 
C734: x25+x45-y25_45 <=1 
C735: x25+x46-y25_46 <=1 
C736: x25+x47 <=1 
C737: x25+x50 <=1 
C738: x25+x51 <=1 
C739: x25+x52 <=1 
C740: x25+x53-y25_53 <=1 
C741: x25+x54-y25_54 <=1 
C742: x25+x55 <=1 
C743: x25+x56 <=1 
C744: x25+x58 <=1 
C745: x26+x27-y26_27 <=1 
C746: x26+x28 <=1 
C747: x26+x29-y26_29 <=1 
C748: x26+x31 <=1 
C749: x26+x32 <=1 
C750: x26+x33-y26_33 <=1 
C751: x26+x34 <=1 
C752: x26+x36-y26_36 <=1 
C753: x26+x37-y26_37 <=1 
C754: x26+x38-y26_38 <=1 
C755: x26+x39-y26_39 <=1 
C756: x26+x40-y26_40 <=1 
C757: x26+x44 <=1 
C758: x26+x46 <=1 
C759: x26+x47-y26_47 <=1 
C760: x26+x48-y26_48 <=1 
C761: x26+x49-y26_49 <=1 
C762: x26+x52 <=1 
C763: x26+x54-y26_54 <=1 
C764: x26+x55 <=1 
C765: x26+x56-y26_56 <=1 
C766: x26+x57-y26_57 <=1 
C767: x26+x60-y26_60 <=1 
C768: x27+x29-y27_29 <=1 
C769: x27+x31-y27_31 <=1 
C770: x27+x33-y27_33 <=1 
C771: x27+x36 <=1 
C772: x27+x37-y27_37 <=1 
C773: x27+x42 <=1 
C774: x27+x43 <=1 
C775: x27+x45 <=1 
C776: x27+x46-y27_46 <=1 
C777: x27+x47 <=1 
C778: x27+x48 <=1 
C779: x27+x49-y27_49 <=1 
C780: x27+x52-y27_52 <=1 
C781: x27+x53-y27_53 <=1 
C782: x27+x54-y27_54 <=1 
C783: x27+x55-y27_55 <=1 
C784: x27+x57-y27_57 <=1 
C785: x28+x29 <=1 
C786: x28+x30-y28_30 <=1 
C787: x28+x31-y28_31 <=1 
C788: x28+x32 <=1 
C789: x28+x33 <=1 
C790: x28+x39-y28_39 <=1 
C791: x28+x40 <=1 
C792: x28+x41-y28_41 <=1 
C793: x28+x42 <=1 
C794: x28+x43-y28_43 <=1 
C795: x28+x45-y28_45 <=1 
C796: x28+x46-y28_46 <=1 
C797: x28+x47 <=1 
C798: x28+x48 <=1 
C799: x28+x49-y28_49 <=1 
C800: x28+x51-y28_51 <=1 
C801: x28+x52-y28_52 <=1 
C802: x28+x53 <=1 
C803: x28+x54 <=1 
C804: x28+x55-y28_55 <=1 
C805: x28+x57-y28_57 <=1 
C806: x28+x58 <=1 
C807: x28+x59 <=1 
C808: x29+x30-y29_30 <=1 
C809: x29+x31-y29_31 <=1 
C810: x29+x33-y29_33 <=1 
C811: x29+x34-y29_34 <=1 
C812: x29+x37 <=1 
C813: x29+x40-y29_40 <=1 
C814: x29+x42-y29_42 <=1 
C815: x29+x46-y29_46 <=1 
C816: x29+x47-y29_47 <=1 
C817: x29+x49 <=1 
C818: x29+x50 <=1 
C819: x29+x51 <=1 
C820: x29+x52 <=1 
C821: x29+x53-y29_53 <=1 
C822: x29+x56 <=1 
C823: x29+x57 <=1 
C824: x29+x58 <=1 
C825: x29+x59-y29_59 <=1 
C826: x29+x60-y29_60 <=1 
C827: x30+x31 <=1 
C828: x30+x32 <=1 
C829: x30+x34 <=1 
C830: x30+x35 <=1 
C831: x30+x37-y30_37 <=1 
C832: x30+x38-y30_38 <=1 
C833: x30+x43 <=1 
C834: x30+x44-y30_44 <=1 
C835: x30+x46 <=1 
C836: x30+x47 <=1 
C837: x30+x48-y30_48 <=1 
C838: x30+x55 <=1 
C839: x30+x58-y30_58 <=1 
C840: x31+x32-y31_32 <=1 
C841: x31+x33 <=1 
C842: x31+x34-y31_34 <=1 
C843: x31+x35-y31_35 <=1 
C844: x31+x36 <=1 
C845: x31+x38 <=1 
C846: x31+x39-y31_39 <=1 
C847: x31+x40-y31_40 <=1 
C848: x31+x42 <=1 
C849: x31+x43 <=1 
C850: x31+x46-y31_46 <=1 
C851: x31+x47 <=1 
C852: x31+x50-y31_50 <=1 
C853: x31+x52-y31_52 <=1 
C854: x31+x53 <=1 
C855: x31+x55 <=1 
C856: x31+x57-y31_57 <=1 
C857: x31+x58 <=1 
C858: x31+x59 <=1 
C859: x32+x35 <=1 
C860: x32+x36 <=1 
C861: x32+x37 <=1 
C862: x32+x39-y32_39 <=1 
C863: x32+x41 <=1 
C864: x32+x43 <=1 
C865: x32+x44-y32_44 <=1 
C866: x32+x45 <=1 
C867: x32+x47 <=1 
C868: x32+x48 <=1 
C869: x32+x50 <=1 
C870: x32+x51 <=1 
C871: x32+x54-y32_54 <=1 
C872: x32+x56-y32_56 <=1 
C873: x32+x58-y32_58 <=1 
C874: x32+x59 <=1 
C875: x33+x34 <=1 
C876: x33+x35-y33_35 <=1 
C877: x33+x36 <=1 
C878: x33+x37 <=1 
C879: x33+x39 <=1 
C880: x33+x40 <=1 
C881: x33+x41 <=1 
C882: x33+x43-y33_43 <=1 
C883: x33+x44-y33_44 <=1 
C884: x33+x48-y33_48 <=1 
C885: x33+x54-y33_54 <=1 
C886: x33+x55 <=1 
C887: x33+x56-y33_56 <=1 
C888: x33+x57 <=1 
C889: x33+x58-y33_58 <=1 
C890: x33+x59-y33_59 <=1 
C891: x33+x60 <=1 
C892: x34+x40 <=1 
C893: x34+x42-y34_42 <=1 
C894: x34+x44-y34_44 <=1 
C895: x34+x45-y34_45 <=1 
C896: x34+x46-y34_46 <=1 
C897: x34+x47-y34_47 <=1 
C898: x34+x48-y34_48 <=1 
C899: x34+x49-y34_49 <=1 
C900: x34+x50 <=1 
C901: x34+x51 <=1 
C902: x34+x53-y34_53 <=1 
C903: x34+x56-y34_56 <=1 
C904: x34+x57-y34_57 <=1 
C905: x34+x59 <=1 
C906: x34+x60 <=1 
C907: x35+x37 <=1 
C908: x35+x38-y35_38 <=1 
C909: x35+x41-y35_41 <=1 
C910: x35+x43 <=1 
C911: x35+x46-y35_46 <=1 
C912: x35+x48-y35_48 <=1 
C913: x35+x49 <=1 
C914: x35+x51 <=1 
C915: x35+x57 <=1 
C916: x35+x58 <=1 
C917: x36+x37-y36_37 <=1 
C918: x36+x39 <=1 
C919: x36+x41 <=1 
C920: x36+x42 <=1 
C921: x36+x43-y36_43 <=1 
C922: x36+x44 <=1 
C923: x36+x45-y36_45 <=1 
C924: x36+x47-y36_47 <=1 
C925: x36+x48-y36_48 <=1 
C926: x36+x51 <=1 
C927: x36+x52-y36_52 <=1 
C928: x36+x54 <=1 
C929: x36+x56 <=1 
C930: x36+x57 <=1 
C931: x36+x58 <=1 
C932: x36+x60-y36_60 <=1 
C933: x37+x38-y37_38 <=1 
C934: x37+x43 <=1 
C935: x37+x44-y37_44 <=1 
C936: x37+x46 <=1 
C937: x37+x49 <=1 
C938: x37+x52-y37_52 <=1 
C939: x37+x53-y37_53 <=1 
C940: x37+x54 <=1 
C941: x37+x57 <=1 
C942: x37+x59 <=1 
C943: x38+x40 <=1 
C944: x38+x42 <=1 
C945: x38+x44-y38_44 <=1 
C946: x38+x47-y38_47 <=1 
C947: x38+x49-y38_49 <=1 
C948: x38+x53 <=1 
C949: x38+x54 <=1 
C950: x38+x55-y38_55 <=1 
C951: x38+x56-y38_56 <=1 
C952: x38+x59-y38_59 <=1 
C953: x38+x60 <=1 
C954: x39+x40 <=1 
C955: x39+x42-y39_42 <=1 
C956: x39+x43 <=1 
C957: x39+x45-y39_45 <=1 
C958: x39+x46 <=1 
C959: x39+x48 <=1 
C960: x39+x51 <=1 
C961: x39+x53 <=1 
C962: x39+x55-y39_55 <=1 
C963: x39+x56 <=1 
C964: x39+x58-y39_58 <=1 
C965: x39+x59-y39_59 <=1 
C966: x39+x60 <=1 
C967: x40+x42-y40_42 <=1 
C968: x40+x43 <=1 
C969: x40+x44 <=1 
C970: x40+x46-y40_46 <=1 
C971: x40+x48 <=1 
C972: x40+x49-y40_49 <=1 
C973: x40+x50-y40_50 <=1 
C974: x40+x54-y40_54 <=1 
C975: x40+x55 <=1 
C976: x40+x57-y40_57 <=1 
C977: x40+x60-y40_60 <=1 
C978: x41+x42-y41_42 <=1 
C979: x41+x43 <=1 
C980: x41+x44 <=1 
C981: x41+x45-y41_45 <=1 
C982: x41+x46 <=1 
C983: x41+x47 <=1 
C984: x41+x48 <=1 
C985: x41+x49 <=1 
C986: x41+x50 <=1 
C987: x41+x52-y41_52 <=1 
C988: x41+x54 <=1 
C989: x41+x56 <=1 
C990: x41+x57-y41_57 <=1 
C991: x41+x58-y41_58 <=1 
C992: x41+x59 <=1 
C993: x41+x60-y41_60 <=1 
C994: x42+x43 <=1 
C995: x42+x45 <=1 
C996: x42+x46 <=1 
C997: x42+x48 <=1 
C998: x42+x51-y42_51 <=1 
C999: x42+x52 <=1 
C1000: x42+x53 <=1 
C1001: x42+x55-y42_55 <=1 
C1002: x42+x56 <=1 
C1003: x42+x57-y42_57 <=1 
C1004: x42+x59 <=1 
C1005: x43+x44-y43_44 <=1 
C1006: x43+x45-y43_45 <=1 
C1007: x43+x46 <=1 
C1008: x43+x50 <=1 
C1009: x43+x52 <=1 
C1010: x43+x53-y43_53 <=1 
C1011: x43+x55-y43_55 <=1 
C1012: x43+x56 <=1 
C1013: x43+x58 <=1 
C1014: x43+x60-y43_60 <=1 
C1015: x44+x45 <=1 
C1016: x44+x46-y44_46 <=1 
C1017: x44+x48 <=1 
C1018: x44+x49-y44_49 <=1 
C1019: x44+x50-y44_50 <=1 
C1020: x44+x55-y44_55 <=1 
C1021: x44+x58-y44_58 <=1 
C1022: x44+x59-y44_59 <=1 
C1023: x44+x60 <=1 
C1024: x45+x47 <=1 
C1025: x45+x48 <=1 
C1026: x45+x50-y45_50 <=1 
C1027: x45+x52 <=1 
C1028: x45+x55-y45_55 <=1 
C1029: x45+x56-y45_56 <=1 
C1030: x45+x57 <=1 
C1031: x46+x47 <=1 
C1032: x46+x48-y46_48 <=1 
C1033: x46+x49 <=1 
C1034: x46+x50 <=1 
C1035: x46+x51 <=1 
C1036: x46+x53 <=1 
C1037: x46+x56-y46_56 <=1 
C1038: x46+x58-y46_58 <=1 
C1039: x46+x60-y46_60 <=1 
C1040: x47+x49 <=1 
C1041: x47+x50-y47_50 <=1 
C1042: x47+x53-y47_53 <=1 
C1043: x47+x54-y47_54 <=1 
C1044: x47+x55-y47_55 <=1 
C1045: x47+x56-y47_56 <=1 
C1046: x47+x58 <=1 
C1047: x47+x60-y47_60 <=1 
C1048: x48+x49-y48_49 <=1 
C1049: x48+x52-y48_52 <=1 
C1050: x48+x58-y48_58 <=1 
C1051: x48+x59-y48_59 <=1 
C1052: x49+x50-y49_50 <=1 
C1053: x49+x51 <=1 
C1054: x49+x53 <=1 
C1055: x49+x54-y49_54 <=1 
C1056: x49+x57 <=1 
C1057: x49+x58-y49_58 <=1 
C1058: x49+x60 <=1 
C1059: x50+x51 <=1 
C1060: x50+x52-y50_52 <=1 
C1061: x50+x54 <=1 
C1062: x50+x55-y50_55 <=1 
C1063: x50+x56 <=1 
C1064: x50+x57 <=1 
C1065: x50+x58 <=1 
C1066: x50+x59-y50_59 <=1 
C1067: x51+x54-y51_54 <=1 
C1068: x51+x60-y51_60 <=1 
C1069: x52+x56-y52_56 <=1 
C1070: x52+x57 <=1 
C1071: x52+x59 <=1 
C1072: x52+x60 <=1 
C1073: x53+x55 <=1 
C1074: x53+x58 <=1 
C1075: x53+x60-y53_60 <=1 
C1076: x54+x55 <=1 
C1077: x54+x56-y54_56 <=1 
C1078: x54+x57-y54_57 <=1 
C1079: x55+x58 <=1 
C1080: x55+x59 <=1 
C1081: x55+x60 <=1 
C1082: x56+x58-y56_58 <=1 
C1083: x56+x59-y56_59 <=1 
C1084: x56+x60-y56_60 <=1 
C1085: x57+x58 <=1 
C1086: x57+x60-y57_60 <=1 
C1087: x58+x59-y58_59 <=1 
C1088: x58+x60 <=1 
C1089: x59+x60 <=1 

binary
x0
x1
x2
x3
x4
x5
x6
x7
x8
x9
x10
x11
x12
x13
x14
x15
x16
x17
x18
x19
x20
x21
x22
x23
x24
x25
x26
x27
x28
x29
x30
x31
x32
x33
x34
x35
x36
x37
x38
x39
x40
x41
x42
x43
x44
x45
x46
x47
x48
x49
x50
x51
x52
x53
x54
x55
x56
x57
x58
x59
x60
