problem_generation/data/GISP/train/er_n=61_m=1089_p=0.60_SET2_setparam=100.00_alpha=0.50_989.sol
objective value:                                 1183
x7                                                  1 	(obj:100)
x16                                                 1 	(obj:100)
x18                                                 1 	(obj:100)
x20                                                 1 	(obj:100)
x21                                                 1 	(obj:100)
x28                                                 1 	(obj:100)
x34                                                 1 	(obj:100)
x35                                                 1 	(obj:100)
x36                                                 1 	(obj:100)
x38                                                 1 	(obj:100)
x46                                                 1 	(obj:100)
x52                                                 1 	(obj:100)
y7_35                                               1 	(obj:-1)
y21_46                                              1 	(obj:-1)
y7_16                                               1 	(obj:-1)
y36_52                                              1 	(obj:-1)
y35_46                                              1 	(obj:-1)
y28_52                                              1 	(obj:-1)
y20_52                                              1 	(obj:-1)
y18_38                                              1 	(obj:-1)
y28_46                                              1 	(obj:-1)
y21_34                                              1 	(obj:-1)
y21_38                                              1 	(obj:-1)
y35_38                                              1 	(obj:-1)
y16_20                                              1 	(obj:-1)
y34_46                                              1 	(obj:-1)
y20_21                                              1 	(obj:-1)
y7_18                                               1 	(obj:-1)
y7_36                                               1 	(obj:-1)
